p tw 55 655
0 1
0 2
0 3
0 4
0 5
0 6
0 7
0 8
0 9
0 10
0 11
0 12
0 13
0 14
0 15
0 16
0 17
0 18
0 24
0 33
0 38
0 39
0 40
0 41
0 21
0 34
0 37
1 2
1 3
1 4
1 5
1 6
1 7
1 8
1 9
1 10
1 17
1 19
1 25
1 27
1 30
1 36
1 38
1 44
1 45
1 21
1 28
1 37
1 47
1 51
1 13
1 15
1 43
1 48
1 49
1 14
1 16
1 31
1 35
1 40
1 53
1 54
2 3
2 4
2 5
2 6
2 7
2 8
2 9
2 10
2 21
2 25
2 27
2 28
2 29
2 30
2 31
2 32
2 37
2 38
2 47
2 51
3 4
3 5
3 6
3 7
3 8
3 9
3 10
3 21
3 25
3 27
3 28
3 29
3 30
3 31
3 32
4 5
4 6
4 7
4 8
4 9
4 10
4 11
4 12
4 13
4 14
4 15
4 16
4 17
4 18
4 23
4 26
4 33
4 34
4 35
4 36
4 37
4 22
4 29
4 31
4 39
4 40
4 42
4 43
4 21
4 25
4 28
4 38
4 47
4 51
4 48
4 49
5 6
5 7
5 8
5 9
5 10
5 17
5 19
5 25
5 27
5 30
5 36
5 38
5 44
5 45
5 26
5 28
5 42
5 48
5 50
5 51
5 16
5 23
5 29
5 34
5 46
5 52
6 7
6 8
6 9
6 10
6 17
6 24
6 33
6 38
6 39
6 40
6 41
6 15
6 16
6 22
6 29
6 31
6 42
6 43
6 13
6 48
6 49
6 51
7 8
7 9
7 13
7 19
7 20
7 21
7 22
7 23
7 24
7 25
7 26
7 10
7 17
7 33
7 38
7 39
7 40
7 41
7 15
7 16
7 29
7 31
7 42
7 43
7 28
7 36
7 48
7 50
7 51
7 37
7 47
7 49
8 9
8 13
8 19
8 20
8 21
8 22
8 23
8 24
8 25
8 26
9 14
9 15
9 23
9 26
9 33
9 34
9 35
9 36
9 37
9 10
9 17
9 24
9 38
9 39
9 40
9 41
9 21
10 11
10 12
10 13
10 14
10 15
10 16
10 17
10 18
10 21
10 25
10 27
10 28
10 29
10 30
10 31
10 32
10 24
10 33
10 38
10 39
10 40
10 41
10 19
10 36
10 44
10 45
10 43
10 48
10 49
10 51
11 12
11 13
11 14
11 15
11 16
11 17
11 18
11 20
11 22
11 29
11 31
11 41
11 45
11 46
11 47
11 48
11 49
12 13
12 14
12 15
12 16
12 17
12 18
13 14
13 15
13 16
13 17
13 18
13 19
13 20
13 21
13 22
13 23
13 24
13 25
13 26
13 43
13 48
13 49
13 51
14 15
14 16
14 17
14 18
14 23
14 26
14 33
14 34
14 35
14 36
14 37
14 30
14 31
14 38
14 40
14 51
14 53
14 54
15 16
15 17
15 18
15 23
15 26
15 33
15 34
15 35
15 36
15 37
15 22
15 29
15 31
15 39
15 40
15 42
15 43
15 21
15 24
15 48
15 49
15 51
16 17
16 18
16 22
16 29
16 31
16 39
16 40
16 42
16 43
16 23
16 27
16 30
16 34
16 36
16 46
16 52
16 35
16 38
16 51
16 53
16 54
17 18
17 24
17 33
17 38
17 39
17 40
17 41
17 19
17 25
17 27
17 30
17 36
17 44
17 45
19 20
19 21
19 22
19 23
19 24
19 25
19 26
19 27
19 30
19 36
19 38
19 44
19 45
20 21
20 22
20 23
20 24
20 25
20 26
20 29
20 31
20 41
20 45
20 46
20 47
20 48
20 49
21 22
21 23
21 24
21 25
21 26
21 27
21 28
21 29
21 30
21 31
21 32
21 33
21 34
21 37
21 39
21 40
21 38
21 47
21 51
22 23
22 24
22 25
22 26
22 29
22 31
22 39
22 40
22 42
22 43
22 41
22 45
22 46
22 47
22 48
22 49
23 24
23 25
23 26
23 33
23 34
23 35
23 36
23 37
23 27
23 29
23 30
23 46
23 52
24 25
24 26
24 33
24 38
24 39
24 40
24 41
24 34
24 37
25 26
25 27
25 28
25 29
25 30
25 31
25 32
25 36
25 38
25 44
25 45
25 37
25 47
25 51
26 33
26 34
26 35
26 36
26 37
26 28
26 38
26 42
26 48
26 50
26 51
27 28
27 29
27 30
27 31
27 32
27 36
27 38
27 44
27 45
27 34
27 46
27 52
28 29
28 30
28 31
28 32
28 36
28 38
28 42
28 48
28 50
28 51
28 37
28 47
29 30
29 31
29 32
29 39
29 40
29 42
29 43
29 41
29 45
29 46
29 47
29 48
29 49
29 34
29 36
29 52
30 31
30 32
30 36
30 38
30 44
30 45
30 34
30 46
30 52
30 35
30 40
30 51
30 53
30 54
31 32
31 39
31 40
31 42
31 43
31 41
31 45
31 46
31 47
31 48
31 49
31 35
31 38
31 51
31 53
31 54
33 34
33 35
33 36
33 37
33 38
33 39
33 40
33 41
34 35
34 36
34 37
34 39
34 40
34 46
34 52
35 36
35 37
35 38
35 40
35 51
35 53
35 54
36 37
36 38
36 44
36 45
36 42
36 48
36 50
36 51
36 46
36 52
37 39
37 40
37 38
37 47
37 51
38 39
38 40
38 41
38 44
38 45
38 42
38 48
38 50
38 51
38 47
38 53
38 54
39 40
39 41
39 42
39 43
40 41
40 42
40 43
40 51
40 53
40 54
41 45
41 46
41 47
41 48
41 49
42 43
42 48
42 50
42 51
43 48
43 49
43 51
44 45
45 46
45 47
45 48
45 49
46 47
46 48
46 49
46 52
47 48
47 49
47 51
48 49
48 50
48 51
49 51
50 51
51 53
51 54
53 54
